NAME: ACTUAL_TOURS/amz2601
TYPE: TOUR
COMMENT: RouteID_47cd604d-0db9-4c78-b944-c6f7fa5529ea
DIMENSION: 184
TOUR_SECTION
31
119
118
164
166
176
36
4
47
60
104
160
74
22
76
58
147
170
114
52
43
61
29
140
162
80
156
65
124
1
7
99
165
127
97
152
153
137
150
113
105
79
25
112
93
100
161
117
71
139
68
78
181
6
95
126
37
154
10
101
38
3
11
163
96
148
45
44
136
30
81
116
92
66
26
85
141
174
123
62
167
23
90
103
145
183
122
16
18
13
158
87
142
15
69
2
73
94
108
102
24
110
5
144
133
72
41
49
42
107
131
121
34
70
55
35
12
159
46
75
182
21
177
184
128
109
77
32
84
155
33
9
27
91
130
125
168
172
151
51
169
39
179
149
54
64
178
48
138
20
111
67
59
180
89
157
14
56
135
88
173
50
132
120
171
146
83
115
63
53
17
8
129
40
143
175
98
19
86
106
28
134
57
82
-1
EOF
